\ This file was automatically generated by Zimpl
\ set aeroportos := {1, 2, 3, 4};
\ set ciaAerea := {1, 2, 3};
\ param maxCombustivel[ciaAerea] := <1> 250000, <2> 500000, <3> 600000;
\ param consumoCombustivel[aeroportos] := <1> 100000, <2> 200000, <3> 300000, <4> 400000;
\ param custoCia1[aeroportos] := <1> 12, <2> 10, <3> 8, <4> 11;
\ param custoCia2[aeroportos] := <1> 9, <2> 11, <3> 11, <4> 13;
\ param custoCia3[aeroportos] := <1> 10, <2> 14, <3> 13, <4> 9;
\ var quantCia1[aeroportos] integer >=0;
\ var quantCia2[aeroportos] integer >=0;
\ var quantCia3[aeroportos] integer >=0;
\ minimize custo :       (sum <i> in aeroportos : quantCia1[i] * custoCia1[i]) +      (sum <i> in aeroportos : quantCia2[i] * c
\ ustoCia2[i]) +      (sum <i> in aeroportos : quantCia3[i] * custoCia3[i]) ;
\ subto limiteCombustivelDistribuido :     forall <c> in ciaAerea :         sum <i> in aeroportos : quantCia1[i] <= maxCombusti
\ vel[c];
\ subto minimoCombustivel :     forall <i> in aeroportos :         quantCia1[i] + quantCia2[i] + quantCia3[i] >= consumoCombust
\ ivel[i];
\Problem name: file
Minimize
 custo:  +12 quantCia1#1 +10 quantCia1#2 +8 quantCia1#3 +11 quantCia1#4 +9 quantCia2#1 +11 quantCia2#2
  +11 quantCia2#3 +13 quantCia2#4 +10 quantCia3#1 +14 quantCia3#2 +13 quantCia3#3 +9 quantCia3#4
 
Subject to
 limiteCombusti@0:
  + quantCia1#4 + quantCia1#3 + quantCia1#2 + quantCia1#1 <= 250000
 limiteCombusti@1:
  + quantCia1#4 + quantCia1#3 + quantCia1#2 + quantCia1#1 <= 500000
 limiteCombusti@2:
  + quantCia1#4 + quantCia1#3 + quantCia1#2 + quantCia1#1 <= 600000
 minimoCombusti@3:
  + quantCia3#1 + quantCia2#1 + quantCia1#1 >= 100000
 minimoCombusti@4:
  + quantCia3#2 + quantCia2#2 + quantCia1#2 >= 200000
 minimoCombusti@5:
  + quantCia3#3 + quantCia2#3 + quantCia1#3 >= 300000
 minimoCombusti@6:
  + quantCia3#4 + quantCia2#4 + quantCia1#4 >= 400000
Bounds
 0 <= quantCia1#1 <= +inf
 0 <= quantCia1#2 <= +inf
 0 <= quantCia1#3 <= +inf
 0 <= quantCia1#4 <= +inf
 0 <= quantCia2#1 <= +inf
 0 <= quantCia2#2 <= +inf
 0 <= quantCia2#3 <= +inf
 0 <= quantCia2#4 <= +inf
 0 <= quantCia3#1 <= +inf
 0 <= quantCia3#2 <= +inf
 0 <= quantCia3#3 <= +inf
 0 <= quantCia3#4 <= +inf
General
 quantCia1#1
 quantCia1#2
 quantCia1#3
 quantCia1#4
 quantCia2#1
 quantCia2#2
 quantCia2#3
 quantCia2#4
 quantCia3#1
 quantCia3#2
 quantCia3#3
 quantCia3#4
End
